ws_caric/src/star_planner/utils/lkh_tsp_solver/resource/changi_cluster.tsp
NAME : single_frontier
TYPE : ATSP
DIMENSION : 9
EDGE_WEIGHT_TYPE : EXPLICIT
EDGE_WEIGHT_FORMAT : FULL_MATRIX
EDGE_WEIGHT_SECTION
0 1744 1137 1520 1474 250434 1874 1899 2260 
0 0 2519 2485 3362 1000000 3611 1000000 1000000 
0 2519 0 1720 3121 1000000 1439 1000000 1000000 
0 2485 1720 0 819 1000000 1714 1000000 1000000 
0 3362 3121 819 0 1000000 2712 12157 13582 
0 1000000 1000000 1000000 1000000 0 1000000 1000000 1000000 
0 3611 1439 1714 2712 1000000 0 1000000 1000000 
0 1000000 1000000 1000000 12157 1000000 1000000 0 1000000 
0 1000000 1000000 1000000 13582 1000000 1000000 1000000 0 
EOF